5 
4 
5 
4 
3 
5 
6 
5 
7 
7 
4 
8 
6 
2 
9 
4 
5 
7 
5 
6 
3 
3 
4 
1 
2 
7 
5 
3 
2 
10 
2 
8 
5 
5 
5 
6 
3 
9 
6 
5 
8 
1 
5 
6 
3 
4 
6 
5 
5 
4 
6 
5 
8 
5 
6 
7 
1 
5 
3 
6 
4 
5 
2 
6 
9 
8 
3 
10 
3 
4 
6 
4 
8 
4 
1 
7 
3 
12 
2 
12 
10 
7 
6 
9 
9 
7 
7 
7 
5 
3 
4 
5 
1 
6 
5 
7 
2 
4 
2 
4 
